Test: battleship-09-17-sat.cnf
Options: -no-inverting-opt -sym-usage-var-bump
WARNING: for repeatability, setting FPU to use double precision
============================[ Problem Statistics ]=============================
|                                                                             |
|  Number of symmetries:           15                                         |
|  Number of invertingSyms:         0                                         |
|  Number of variables:           153                                         |
|  Number of clauses:             693                                         |
|  Parse time:                   0.00 s                                       |
|                                                                             |
============================[ Search Statistics ]==============================
| Conflicts |          ORIGINAL         |          LEARNT          | Progress |
|           |    Vars  Clauses Literals |    Limit  Clauses Lit/Cl |          |
===============================================================================
|       100 |     153      693     2601 |      254      126     76 |  0.004 % |
|       250 |     153      693     2601 |      279      285     66 |  0.004 % |
|       475 |     153      693     2601 |      307      360     66 |  0.004 % |
|       812 |     153      693     2601 |      338      207     48 |  0.004 % |
===============================================================================
restarts              : 8
conflicts             : 1210           (100833 /sec)
symconflicts          : 68             (5667 /sec)
decisions             : 2261           (0.00 % random) (188417 /sec)
propagations          : 23339          (1944917 /sec)
sympropagations       : 190            (15833 /sec)
conflict literals     : 79258          (1.36 % deleted)
literals     : 79258          (1.36 % deleted)

HEURISTIC USAGES
random                : 0           
activity w/ lookahead : 0           
activity no lookahead : 0           
original sp           : 2260        
sym count             : 0           

Memory used           : 6.00 MB
CPU time              : 0.012 s

SATISFIABLE
